Maximize
  - 2.1233636037246 edge_0_2_0_0 - 2.901509642634 edge_0_3_0_0
   - 1.71657662865 edge_0_4_0_0 - 2.5606621648588 edge_0_7_0_0
   - 2.726712724008 edge_0_8_0_0 - 2.6522093679966 edge_0_9_0_0
   - 1.639628420625 edge_0_11_0_0 - 2.7982021725698 edge_0_12_0_0
   - 4.030735577687 edge_0_17_0_0 - 4.427995417085699 edge_0_18_0_0
   - 4.6314185890725 edge_0_21_0_0 + 0.534243033206443 edge_2_3_0_0
   + 0.2167055178213776 edge_2_4_0_0 - 0.1758053818795867 edge_2_7_0_0
   - 0.4329032789622963 edge_2_8_0_0 - 0.6757417458923769 edge_2_9_0_0
   + 0.3863314794518125 edge_2_12_0_0 - 0.0573048087049346 edge_2_18_0_0
   + 1.223958761297917 edge_2_22_0_0 + 0.7903531666672866 edge_3_2_0_0
   + 0.5021370045317277 edge_3_4_0_0 - 0.3474811500256618 edge_3_7_0_0
   - 0.3809965593922554 edge_3_8_0_0 - 0.5650794151424559 edge_3_11_0_0
   + 1.026998118459353 edge_3_12_0_0 + 0.2161169133855041 edge_3_18_0_0
   + 1.816095153407348 edge_3_22_0_0 - 0.1364053402249564 edge_4_2_0_0
   - 0.2537822643661578 edge_4_3_0_0 - 0.2097252766307651 edge_7_2_0_0
   - 0.1041964601133204 edge_7_3_0_0 + 0.1562770658936601 edge_7_4_0_0
   + 0.0782925623143646 edge_7_8_0_0 - 0.319711955300477 edge_7_9_0_0
   - 0.1439565661412475 edge_7_11_0_0 + 0.4800206633072058 edge_7_12_0_0
   + 0.1128946679201616 edge_7_15_0_0 - 0.0901999132878783 edge_7_18_0_0
   - 0.0537769720582896 edge_8_2_0_0 - 0.2444463146060723 edge_8_3_0_0
   + 0.3198162002429912 edge_8_4_0_0 + 0.5935280695549877 edge_8_7_0_0
   + 0.6011236952551822 edge_8_9_0_0 + 0.3132797705778366 edge_8_11_0_0
   + 1.830739805831091 edge_8_12_0_0 + 0.107789282719891 edge_8_13_0_0
   + 0.8656613478377743 edge_8_15_0_0 + 0.1236801873836828 edge_8_16_0_0
   + 0.1543834995700525 edge_8_17_0_0 + 0.8696097726540323 edge_8_18_0_0
   + 0.3748052719591972 edge_8_19_0_0 + 0.2124744543744776 edge_8_21_0_0
   + 2.377527868420842 edge_8_22_0_0 - 0.580028201790639 edge_9_7_0_0
   + 0.0185716717736262 edge_9_8_0_0 + 0.0618463047070605 edge_9_11_0_0
   - 0.4006457581778242 edge_11_2_0_0 - 0.5173699790514795 edge_11_3_0_0
   - 0.4249290452879638 edge_11_4_0_0 + 0.0135244493494627 edge_11_7_0_0
   + 0.1551373579856342 edge_11_8_0_0 + 0.3149559229466323 edge_11_9_0_0
   + 0.2427254998839346 edge_11_12_0_0 - 0.1887656319972921 edge_11_13_0_0
   - 0.263279508822826 edge_11_15_0_0 - 0.414500151717182 edge_11_18_0_0
   + 0.4563116215377726 edge_11_22_0_0 + 0.542261919972619 edge_12_2_0_0
   + 0.0800927202215057 edge_12_3_0_0 + 0.3632600419685318 edge_12_4_0_0
   + 0.8835126032974061 edge_12_7_0_0 + 1.16482910220062 edge_12_8_0_0
   + 1.544404844246564 edge_12_9_0_0 + 1.232270474320529 edge_12_11_0_0
   + 1.675648966091807 edge_12_13_0_0 + 1.411557034033843 edge_12_15_0_0
   - 0.0572079715879303 edge_12_16_0_0 + 0.3570100466969454 edge_12_17_0_0
   + 1.623502411958335 edge_12_18_0_0 + 0.0788325352351121 edge_12_19_0_0
   - 0.0509515823185123 edge_12_21_0_0 + 3.729485426892611 edge_12_22_0_0
   - 0.0479832261299939 edge_13_12_0_0 + 0.9896113613614937 edge_13_15_0_0
   + 0.3646554065833338 edge_13_16_0_0 + 0.5910556866681408 edge_13_17_0_0
   + 0.681489947292223 edge_13_18_0_0 + 0.2845302481130176 edge_13_19_0_0
   + 0.4104134363879693 edge_13_21_0_0 + 0.4620227217061365 edge_15_13_0_0
   - 0.1186817464214351 edge_15_16_0_0 - 0.7875416481607652 edge_16_13_0_0
   - 0.3799630073054961 edge_16_15_0_0 - 0.6345268288504483 edge_16_17_0_0
   - 1.332501503370167 edge_16_19_0_0 + 0.0707960590736018 edge_17_13_0_0
   - 0.1059332409899501 edge_17_15_0_0 + 0.4809781929925595 edge_17_16_0_0
   + 0.8999849455414992 edge_17_18_0_0 - 0.0259863372835086 edge_17_19_0_0
   - 0.438335348543797 edge_17_21_0_0 + 0.8373961127874414 edge_17_22_0_0
   - 0.7102983342624836 edge_18_2_0_0 - 2.08178697801342 edge_18_3_0_0
   - 0.1401868527097294 edge_18_4_0_0 - 1.250408822349427 edge_18_7_0_0
   - 0.8019303211630767 edge_18_8_0_0 - 0.3589369519690511 edge_18_9_0_0
   - 0.214288927543605 edge_18_11_0_0 - 0.6494129310435566 edge_18_12_0_0
   + 0.2358211463513027 edge_18_13_0_0 - 0.0835974097981403 edge_18_15_0_0
   + 2.261668533110802 edge_18_16_0_0 + 1.807652755242521 edge_18_17_0_0
   + 2.883459927617684 edge_18_19_0_0 + 0.3028061365233436 edge_18_20_0_0
   + 2.324164475213682 edge_18_21_0_0 + 2.812001484036287 edge_18_22_0_0
   + 0.628014325848069 edge_19_20_0_0 + 1.127255135082505 edge_19_21_0_0
   + 0.4026274513465917 edge_19_22_0_0 + 0.3673732751792678 edge_20_19_0_0
   - 0.1789120896252557 edge_21_13_0_0 + 1.112005556092007 edge_21_16_0_0
   + 0.6863458072425943 edge_21_17_0_0 + 1.043940907450967 edge_21_19_0_0
   + 3.247658860314692 edge_21_20_0_0 + 0.7308944690463813 edge_21_22_0_0
   - 1.418571849231043 edge_22_21_0_0
Subject To
 one_parent_1: = 1
 consume_one_flow_unit_1: = 1
 one_parent_2: edge_0_2_0_0 + edge_3_2_0_0 + edge_4_2_0_0 + edge_7_2_0_0
   + edge_8_2_0_0 + edge_11_2_0_0 + edge_12_2_0_0 + edge_18_2_0_0 = 1
 consume_one_flow_unit_2: flow_0_2_0_0 - flow_2_3_0_0 - flow_2_4_0_0
   - flow_2_7_0_0 - flow_2_8_0_0 - flow_2_9_0_0 - flow_2_12_0_0
   - flow_2_18_0_0 - flow_2_22_0_0 + flow_3_2_0_0 + flow_4_2_0_0
   + flow_7_2_0_0 + flow_8_2_0_0 + flow_11_2_0_0 + flow_12_2_0_0
   + flow_18_2_0_0 = 1
 one_parent_3: edge_0_3_0_0 + edge_2_3_0_0 + edge_4_3_0_0 + edge_7_3_0_0
   + edge_8_3_0_0 + edge_11_3_0_0 + edge_12_3_0_0 + edge_18_3_0_0 = 1
 consume_one_flow_unit_3: flow_0_3_0_0 + flow_2_3_0_0 - flow_3_2_0_0
   - flow_3_4_0_0 - flow_3_7_0_0 - flow_3_8_0_0 - flow_3_11_0_0
   - flow_3_12_0_0 - flow_3_18_0_0 - flow_3_22_0_0 + flow_4_3_0_0
   + flow_7_3_0_0 + flow_8_3_0_0 + flow_11_3_0_0 + flow_12_3_0_0
   + flow_18_3_0_0 = 1
 one_parent_4: edge_0_4_0_0 + edge_2_4_0_0 + edge_3_4_0_0 + edge_7_4_0_0
   + edge_8_4_0_0 + edge_11_4_0_0 + edge_12_4_0_0 + edge_18_4_0_0 = 1
 consume_one_flow_unit_4: flow_0_4_0_0 + flow_2_4_0_0 + flow_3_4_0_0
   - flow_4_2_0_0 - flow_4_3_0_0 + flow_7_4_0_0 + flow_8_4_0_0
   + flow_11_4_0_0 + flow_12_4_0_0 + flow_18_4_0_0 = 1
 one_parent_5: = 1
 consume_one_flow_unit_5: = 1
 one_parent_6: = 1
 consume_one_flow_unit_6: = 1
 one_parent_7: edge_0_7_0_0 + edge_2_7_0_0 + edge_3_7_0_0 + edge_8_7_0_0
   + edge_9_7_0_0 + edge_11_7_0_0 + edge_12_7_0_0 + edge_18_7_0_0 = 1
 consume_one_flow_unit_7: flow_0_7_0_0 + flow_2_7_0_0 + flow_3_7_0_0
   - flow_7_2_0_0 - flow_7_3_0_0 - flow_7_4_0_0 - flow_7_8_0_0
   - flow_7_9_0_0 - flow_7_11_0_0 - flow_7_12_0_0 - flow_7_15_0_0
   - flow_7_18_0_0 + flow_8_7_0_0 + flow_9_7_0_0 + flow_11_7_0_0
   + flow_12_7_0_0 + flow_18_7_0_0 = 1
 one_parent_8: edge_0_8_0_0 + edge_2_8_0_0 + edge_3_8_0_0 + edge_7_8_0_0
   + edge_9_8_0_0 + edge_11_8_0_0 + edge_12_8_0_0 + edge_18_8_0_0 = 1
 consume_one_flow_unit_8: flow_0_8_0_0 + flow_2_8_0_0 + flow_3_8_0_0
   + flow_7_8_0_0 - flow_8_2_0_0 - flow_8_3_0_0 - flow_8_4_0_0
   - flow_8_7_0_0 - flow_8_9_0_0 - flow_8_11_0_0 - flow_8_12_0_0
   - flow_8_13_0_0 - flow_8_15_0_0 - flow_8_16_0_0 - flow_8_17_0_0
   - flow_8_18_0_0 - flow_8_19_0_0 - flow_8_21_0_0 - flow_8_22_0_0
   + flow_9_8_0_0 + flow_11_8_0_0 + flow_12_8_0_0 + flow_18_8_0_0 = 1
 one_parent_9: edge_0_9_0_0 + edge_2_9_0_0 + edge_7_9_0_0 + edge_8_9_0_0
   + edge_11_9_0_0 + edge_12_9_0_0 + edge_18_9_0_0 = 1
 consume_one_flow_unit_9: flow_0_9_0_0 + flow_2_9_0_0 + flow_7_9_0_0
   + flow_8_9_0_0 - flow_9_7_0_0 - flow_9_8_0_0 - flow_9_11_0_0
   + flow_11_9_0_0 + flow_12_9_0_0 + flow_18_9_0_0 = 1
 one_parent_10: = 1
 consume_one_flow_unit_10: = 1
 one_parent_11: edge_0_11_0_0 + edge_3_11_0_0 + edge_7_11_0_0
   + edge_8_11_0_0 + edge_9_11_0_0 + edge_12_11_0_0 + edge_18_11_0_0 = 1
 consume_one_flow_unit_11: flow_0_11_0_0 + flow_3_11_0_0 + flow_7_11_0_0
   + flow_8_11_0_0 + flow_9_11_0_0 - flow_11_2_0_0 - flow_11_3_0_0
   - flow_11_4_0_0 - flow_11_7_0_0 - flow_11_8_0_0 - flow_11_9_0_0
   - flow_11_12_0_0 - flow_11_13_0_0 - flow_11_15_0_0 - flow_11_18_0_0
   - flow_11_22_0_0 + flow_12_11_0_0 + flow_18_11_0_0 = 1
 one_parent_12: edge_0_12_0_0 + edge_2_12_0_0 + edge_3_12_0_0
   + edge_7_12_0_0 + edge_8_12_0_0 + edge_11_12_0_0 + edge_13_12_0_0
   + edge_18_12_0_0 = 1
 consume_one_flow_unit_12: flow_0_12_0_0 + flow_2_12_0_0 + flow_3_12_0_0
   + flow_7_12_0_0 + flow_8_12_0_0 + flow_11_12_0_0 - flow_12_2_0_0
   - flow_12_3_0_0 - flow_12_4_0_0 - flow_12_7_0_0 - flow_12_8_0_0
   - flow_12_9_0_0 - flow_12_11_0_0 - flow_12_13_0_0 - flow_12_15_0_0
   - flow_12_16_0_0 - flow_12_17_0_0 - flow_12_18_0_0 - flow_12_19_0_0
   - flow_12_21_0_0 - flow_12_22_0_0 + flow_13_12_0_0 + flow_18_12_0_0 = 1
 one_parent_13: edge_8_13_0_0 + edge_11_13_0_0 + edge_12_13_0_0
   + edge_15_13_0_0 + edge_16_13_0_0 + edge_17_13_0_0 + edge_18_13_0_0
   + edge_21_13_0_0 = 1
 consume_one_flow_unit_13: flow_8_13_0_0 + flow_11_13_0_0 + flow_12_13_0_0
   - flow_13_12_0_0 - flow_13_15_0_0 - flow_13_16_0_0 - flow_13_17_0_0
   - flow_13_18_0_0 - flow_13_19_0_0 - flow_13_21_0_0 + flow_15_13_0_0
   + flow_16_13_0_0 + flow_17_13_0_0 + flow_18_13_0_0 + flow_21_13_0_0 = 1
 one_parent_14: = 1
 consume_one_flow_unit_14: = 1
 one_parent_15: edge_7_15_0_0 + edge_8_15_0_0 + edge_11_15_0_0
   + edge_12_15_0_0 + edge_13_15_0_0 + edge_16_15_0_0 + edge_17_15_0_0
   + edge_18_15_0_0 = 1
 consume_one_flow_unit_15: flow_7_15_0_0 + flow_8_15_0_0 + flow_11_15_0_0
   + flow_12_15_0_0 + flow_13_15_0_0 - flow_15_13_0_0 - flow_15_16_0_0
   + flow_16_15_0_0 + flow_17_15_0_0 + flow_18_15_0_0 = 1
 one_parent_16: edge_8_16_0_0 + edge_12_16_0_0 + edge_13_16_0_0
   + edge_15_16_0_0 + edge_17_16_0_0 + edge_18_16_0_0 + edge_21_16_0_0 = 1
 consume_one_flow_unit_16: flow_8_16_0_0 + flow_12_16_0_0 + flow_13_16_0_0
   + flow_15_16_0_0 - flow_16_13_0_0 - flow_16_15_0_0 - flow_16_17_0_0
   - flow_16_19_0_0 + flow_17_16_0_0 + flow_18_16_0_0 + flow_21_16_0_0 = 1
 one_parent_17: edge_0_17_0_0 + edge_8_17_0_0 + edge_12_17_0_0
   + edge_13_17_0_0 + edge_16_17_0_0 + edge_18_17_0_0 + edge_21_17_0_0 = 1
 consume_one_flow_unit_17: flow_0_17_0_0 + flow_8_17_0_0 + flow_12_17_0_0
   + flow_13_17_0_0 + flow_16_17_0_0 - flow_17_13_0_0 - flow_17_15_0_0
   - flow_17_16_0_0 - flow_17_18_0_0 - flow_17_19_0_0 - flow_17_21_0_0
   - flow_17_22_0_0 + flow_18_17_0_0 + flow_21_17_0_0 = 1
 one_parent_18: edge_0_18_0_0 + edge_2_18_0_0 + edge_3_18_0_0
   + edge_7_18_0_0 + edge_8_18_0_0 + edge_11_18_0_0 + edge_12_18_0_0
   + edge_13_18_0_0 + edge_17_18_0_0 = 1
 consume_one_flow_unit_18: flow_0_18_0_0 + flow_2_18_0_0 + flow_3_18_0_0
   + flow_7_18_0_0 + flow_8_18_0_0 + flow_11_18_0_0 + flow_12_18_0_0
   + flow_13_18_0_0 + flow_17_18_0_0 - flow_18_2_0_0 - flow_18_3_0_0
   - flow_18_4_0_0 - flow_18_7_0_0 - flow_18_8_0_0 - flow_18_9_0_0
   - flow_18_11_0_0 - flow_18_12_0_0 - flow_18_13_0_0 - flow_18_15_0_0
   - flow_18_16_0_0 - flow_18_17_0_0 - flow_18_19_0_0 - flow_18_20_0_0
   - flow_18_21_0_0 - flow_18_22_0_0 = 1
 one_parent_19: edge_8_19_0_0 + edge_12_19_0_0 + edge_13_19_0_0
   + edge_16_19_0_0 + edge_17_19_0_0 + edge_18_19_0_0 + edge_20_19_0_0
   + edge_21_19_0_0 = 1
 consume_one_flow_unit_19: flow_8_19_0_0 + flow_12_19_0_0 + flow_13_19_0_0
   + flow_16_19_0_0 + flow_17_19_0_0 + flow_18_19_0_0 - flow_19_20_0_0
   - flow_19_21_0_0 - flow_19_22_0_0 + flow_20_19_0_0 + flow_21_19_0_0 = 1
 one_parent_20: edge_18_20_0_0 + edge_19_20_0_0 + edge_21_20_0_0 = 1
 consume_one_flow_unit_20: flow_18_20_0_0 + flow_19_20_0_0 - flow_20_19_0_0
   + flow_21_20_0_0 = 1
 one_parent_21: edge_0_21_0_0 + edge_8_21_0_0 + edge_12_21_0_0
   + edge_13_21_0_0 + edge_17_21_0_0 + edge_18_21_0_0 + edge_19_21_0_0
   + edge_22_21_0_0 = 1
 consume_one_flow_unit_21: flow_0_21_0_0 + flow_8_21_0_0 + flow_12_21_0_0
   + flow_13_21_0_0 + flow_17_21_0_0 + flow_18_21_0_0 + flow_19_21_0_0
   - flow_21_13_0_0 - flow_21_16_0_0 - flow_21_17_0_0 - flow_21_19_0_0
   - flow_21_20_0_0 - flow_21_22_0_0 + flow_22_21_0_0 = 1
 one_parent_22: edge_2_22_0_0 + edge_3_22_0_0 + edge_8_22_0_0
   + edge_11_22_0_0 + edge_12_22_0_0 + edge_17_22_0_0 + edge_18_22_0_0
   + edge_19_22_0_0 + edge_21_22_0_0 = 1
 consume_one_flow_unit_22: flow_2_22_0_0 + flow_3_22_0_0 + flow_8_22_0_0
   + flow_11_22_0_0 + flow_12_22_0_0 + flow_17_22_0_0 + flow_18_22_0_0
   + flow_19_22_0_0 + flow_21_22_0_0 - flow_22_21_0_0 = 1
 root_flow: flow_0_2_0_0 + flow_0_3_0_0 + flow_0_4_0_0 + flow_0_7_0_0
   + flow_0_8_0_0 + flow_0_9_0_0 + flow_0_11_0_0 + flow_0_12_0_0
   + flow_0_17_0_0 + flow_0_18_0_0 + flow_0_21_0_0 = 22
 inactive_no_flow_0_2_0_0: flow_0_2_0_0 - 1000 edge_0_2_0_0 <= 0
 inactive_no_flow_0_3_0_0: flow_0_3_0_0 - 1000 edge_0_3_0_0 <= 0
 inactive_no_flow_0_4_0_0: flow_0_4_0_0 - 1000 edge_0_4_0_0 <= 0
 inactive_no_flow_0_7_0_0: flow_0_7_0_0 - 1000 edge_0_7_0_0 <= 0
 inactive_no_flow_0_8_0_0: flow_0_8_0_0 - 1000 edge_0_8_0_0 <= 0
 inactive_no_flow_0_9_0_0: flow_0_9_0_0 - 1000 edge_0_9_0_0 <= 0
 inactive_no_flow_0_11_0_0: flow_0_11_0_0 - 1000 edge_0_11_0_0 <= 0
 inactive_no_flow_0_12_0_0: flow_0_12_0_0 - 1000 edge_0_12_0_0 <= 0
 inactive_no_flow_0_17_0_0: flow_0_17_0_0 - 1000 edge_0_17_0_0 <= 0
 inactive_no_flow_0_18_0_0: flow_0_18_0_0 - 1000 edge_0_18_0_0 <= 0
 inactive_no_flow_0_21_0_0: flow_0_21_0_0 - 1000 edge_0_21_0_0 <= 0
 inactive_no_flow_2_3_0_0: flow_2_3_0_0 - 1000 edge_2_3_0_0 <= 0
 inactive_no_flow_2_4_0_0: flow_2_4_0_0 - 1000 edge_2_4_0_0 <= 0
 inactive_no_flow_2_7_0_0: flow_2_7_0_0 - 1000 edge_2_7_0_0 <= 0
 inactive_no_flow_2_8_0_0: flow_2_8_0_0 - 1000 edge_2_8_0_0 <= 0
 inactive_no_flow_2_9_0_0: flow_2_9_0_0 - 1000 edge_2_9_0_0 <= 0
 inactive_no_flow_2_12_0_0: flow_2_12_0_0 - 1000 edge_2_12_0_0 <= 0
 inactive_no_flow_2_18_0_0: flow_2_18_0_0 - 1000 edge_2_18_0_0 <= 0
 inactive_no_flow_2_22_0_0: flow_2_22_0_0 - 1000 edge_2_22_0_0 <= 0
 inactive_no_flow_3_2_0_0: flow_3_2_0_0 - 1000 edge_3_2_0_0 <= 0
 inactive_no_flow_3_4_0_0: flow_3_4_0_0 - 1000 edge_3_4_0_0 <= 0
 inactive_no_flow_3_7_0_0: flow_3_7_0_0 - 1000 edge_3_7_0_0 <= 0
 inactive_no_flow_3_8_0_0: flow_3_8_0_0 - 1000 edge_3_8_0_0 <= 0
 inactive_no_flow_3_11_0_0: flow_3_11_0_0 - 1000 edge_3_11_0_0 <= 0
 inactive_no_flow_3_12_0_0: flow_3_12_0_0 - 1000 edge_3_12_0_0 <= 0
 inactive_no_flow_3_18_0_0: flow_3_18_0_0 - 1000 edge_3_18_0_0 <= 0
 inactive_no_flow_3_22_0_0: flow_3_22_0_0 - 1000 edge_3_22_0_0 <= 0
 inactive_no_flow_4_2_0_0: flow_4_2_0_0 - 1000 edge_4_2_0_0 <= 0
 inactive_no_flow_4_3_0_0: flow_4_3_0_0 - 1000 edge_4_3_0_0 <= 0
 inactive_no_flow_7_2_0_0: flow_7_2_0_0 - 1000 edge_7_2_0_0 <= 0
 inactive_no_flow_7_3_0_0: flow_7_3_0_0 - 1000 edge_7_3_0_0 <= 0
 inactive_no_flow_7_4_0_0: flow_7_4_0_0 - 1000 edge_7_4_0_0 <= 0
 inactive_no_flow_7_8_0_0: flow_7_8_0_0 - 1000 edge_7_8_0_0 <= 0
 inactive_no_flow_7_9_0_0: flow_7_9_0_0 - 1000 edge_7_9_0_0 <= 0
 inactive_no_flow_7_11_0_0: flow_7_11_0_0 - 1000 edge_7_11_0_0 <= 0
 inactive_no_flow_7_12_0_0: flow_7_12_0_0 - 1000 edge_7_12_0_0 <= 0
 inactive_no_flow_7_15_0_0: flow_7_15_0_0 - 1000 edge_7_15_0_0 <= 0
 inactive_no_flow_7_18_0_0: flow_7_18_0_0 - 1000 edge_7_18_0_0 <= 0
 inactive_no_flow_8_2_0_0: flow_8_2_0_0 - 1000 edge_8_2_0_0 <= 0
 inactive_no_flow_8_3_0_0: flow_8_3_0_0 - 1000 edge_8_3_0_0 <= 0
 inactive_no_flow_8_4_0_0: flow_8_4_0_0 - 1000 edge_8_4_0_0 <= 0
 inactive_no_flow_8_7_0_0: flow_8_7_0_0 - 1000 edge_8_7_0_0 <= 0
 inactive_no_flow_8_9_0_0: flow_8_9_0_0 - 1000 edge_8_9_0_0 <= 0
 inactive_no_flow_8_11_0_0: flow_8_11_0_0 - 1000 edge_8_11_0_0 <= 0
 inactive_no_flow_8_12_0_0: flow_8_12_0_0 - 1000 edge_8_12_0_0 <= 0
 inactive_no_flow_8_13_0_0: flow_8_13_0_0 - 1000 edge_8_13_0_0 <= 0
 inactive_no_flow_8_15_0_0: flow_8_15_0_0 - 1000 edge_8_15_0_0 <= 0
 inactive_no_flow_8_16_0_0: flow_8_16_0_0 - 1000 edge_8_16_0_0 <= 0
 inactive_no_flow_8_17_0_0: flow_8_17_0_0 - 1000 edge_8_17_0_0 <= 0
 inactive_no_flow_8_18_0_0: flow_8_18_0_0 - 1000 edge_8_18_0_0 <= 0
 inactive_no_flow_8_19_0_0: flow_8_19_0_0 - 1000 edge_8_19_0_0 <= 0
 inactive_no_flow_8_21_0_0: flow_8_21_0_0 - 1000 edge_8_21_0_0 <= 0
 inactive_no_flow_8_22_0_0: flow_8_22_0_0 - 1000 edge_8_22_0_0 <= 0
 inactive_no_flow_9_7_0_0: flow_9_7_0_0 - 1000 edge_9_7_0_0 <= 0
 inactive_no_flow_9_8_0_0: flow_9_8_0_0 - 1000 edge_9_8_0_0 <= 0
 inactive_no_flow_9_11_0_0: flow_9_11_0_0 - 1000 edge_9_11_0_0 <= 0
 inactive_no_flow_11_2_0_0: flow_11_2_0_0 - 1000 edge_11_2_0_0 <= 0
 inactive_no_flow_11_3_0_0: flow_11_3_0_0 - 1000 edge_11_3_0_0 <= 0
 inactive_no_flow_11_4_0_0: flow_11_4_0_0 - 1000 edge_11_4_0_0 <= 0
 inactive_no_flow_11_7_0_0: flow_11_7_0_0 - 1000 edge_11_7_0_0 <= 0
 inactive_no_flow_11_8_0_0: flow_11_8_0_0 - 1000 edge_11_8_0_0 <= 0
 inactive_no_flow_11_9_0_0: flow_11_9_0_0 - 1000 edge_11_9_0_0 <= 0
 inactive_no_flow_11_12_0_0: flow_11_12_0_0 - 1000 edge_11_12_0_0 <= 0
 inactive_no_flow_11_13_0_0: flow_11_13_0_0 - 1000 edge_11_13_0_0 <= 0
 inactive_no_flow_11_15_0_0: flow_11_15_0_0 - 1000 edge_11_15_0_0 <= 0
 inactive_no_flow_11_18_0_0: flow_11_18_0_0 - 1000 edge_11_18_0_0 <= 0
 inactive_no_flow_11_22_0_0: flow_11_22_0_0 - 1000 edge_11_22_0_0 <= 0
 inactive_no_flow_12_2_0_0: flow_12_2_0_0 - 1000 edge_12_2_0_0 <= 0
 inactive_no_flow_12_3_0_0: flow_12_3_0_0 - 1000 edge_12_3_0_0 <= 0
 inactive_no_flow_12_4_0_0: flow_12_4_0_0 - 1000 edge_12_4_0_0 <= 0
 inactive_no_flow_12_7_0_0: flow_12_7_0_0 - 1000 edge_12_7_0_0 <= 0
 inactive_no_flow_12_8_0_0: flow_12_8_0_0 - 1000 edge_12_8_0_0 <= 0
 inactive_no_flow_12_9_0_0: flow_12_9_0_0 - 1000 edge_12_9_0_0 <= 0
 inactive_no_flow_12_11_0_0: flow_12_11_0_0 - 1000 edge_12_11_0_0 <= 0
 inactive_no_flow_12_13_0_0: flow_12_13_0_0 - 1000 edge_12_13_0_0 <= 0
 inactive_no_flow_12_15_0_0: flow_12_15_0_0 - 1000 edge_12_15_0_0 <= 0
 inactive_no_flow_12_16_0_0: flow_12_16_0_0 - 1000 edge_12_16_0_0 <= 0
 inactive_no_flow_12_17_0_0: flow_12_17_0_0 - 1000 edge_12_17_0_0 <= 0
 inactive_no_flow_12_18_0_0: flow_12_18_0_0 - 1000 edge_12_18_0_0 <= 0
 inactive_no_flow_12_19_0_0: flow_12_19_0_0 - 1000 edge_12_19_0_0 <= 0
 inactive_no_flow_12_21_0_0: flow_12_21_0_0 - 1000 edge_12_21_0_0 <= 0
 inactive_no_flow_12_22_0_0: flow_12_22_0_0 - 1000 edge_12_22_0_0 <= 0
 inactive_no_flow_13_12_0_0: flow_13_12_0_0 - 1000 edge_13_12_0_0 <= 0
 inactive_no_flow_13_15_0_0: flow_13_15_0_0 - 1000 edge_13_15_0_0 <= 0
 inactive_no_flow_13_16_0_0: flow_13_16_0_0 - 1000 edge_13_16_0_0 <= 0
 inactive_no_flow_13_17_0_0: flow_13_17_0_0 - 1000 edge_13_17_0_0 <= 0
 inactive_no_flow_13_18_0_0: flow_13_18_0_0 - 1000 edge_13_18_0_0 <= 0
 inactive_no_flow_13_19_0_0: flow_13_19_0_0 - 1000 edge_13_19_0_0 <= 0
 inactive_no_flow_13_21_0_0: flow_13_21_0_0 - 1000 edge_13_21_0_0 <= 0
 inactive_no_flow_15_13_0_0: flow_15_13_0_0 - 1000 edge_15_13_0_0 <= 0
 inactive_no_flow_15_16_0_0: flow_15_16_0_0 - 1000 edge_15_16_0_0 <= 0
 inactive_no_flow_16_13_0_0: flow_16_13_0_0 - 1000 edge_16_13_0_0 <= 0
 inactive_no_flow_16_15_0_0: flow_16_15_0_0 - 1000 edge_16_15_0_0 <= 0
 inactive_no_flow_16_17_0_0: flow_16_17_0_0 - 1000 edge_16_17_0_0 <= 0
 inactive_no_flow_16_19_0_0: flow_16_19_0_0 - 1000 edge_16_19_0_0 <= 0
 inactive_no_flow_17_13_0_0: flow_17_13_0_0 - 1000 edge_17_13_0_0 <= 0
 inactive_no_flow_17_15_0_0: flow_17_15_0_0 - 1000 edge_17_15_0_0 <= 0
 inactive_no_flow_17_16_0_0: flow_17_16_0_0 - 1000 edge_17_16_0_0 <= 0
 inactive_no_flow_17_18_0_0: flow_17_18_0_0 - 1000 edge_17_18_0_0 <= 0
 inactive_no_flow_17_19_0_0: flow_17_19_0_0 - 1000 edge_17_19_0_0 <= 0
 inactive_no_flow_17_21_0_0: flow_17_21_0_0 - 1000 edge_17_21_0_0 <= 0
 inactive_no_flow_17_22_0_0: flow_17_22_0_0 - 1000 edge_17_22_0_0 <= 0
 inactive_no_flow_18_2_0_0: flow_18_2_0_0 - 1000 edge_18_2_0_0 <= 0
 inactive_no_flow_18_3_0_0: flow_18_3_0_0 - 1000 edge_18_3_0_0 <= 0
 inactive_no_flow_18_4_0_0: flow_18_4_0_0 - 1000 edge_18_4_0_0 <= 0
 inactive_no_flow_18_7_0_0: flow_18_7_0_0 - 1000 edge_18_7_0_0 <= 0
 inactive_no_flow_18_8_0_0: flow_18_8_0_0 - 1000 edge_18_8_0_0 <= 0
 inactive_no_flow_18_9_0_0: flow_18_9_0_0 - 1000 edge_18_9_0_0 <= 0
 inactive_no_flow_18_11_0_0: flow_18_11_0_0 - 1000 edge_18_11_0_0 <= 0
 inactive_no_flow_18_12_0_0: flow_18_12_0_0 - 1000 edge_18_12_0_0 <= 0
 inactive_no_flow_18_13_0_0: flow_18_13_0_0 - 1000 edge_18_13_0_0 <= 0
 inactive_no_flow_18_15_0_0: flow_18_15_0_0 - 1000 edge_18_15_0_0 <= 0
 inactive_no_flow_18_16_0_0: flow_18_16_0_0 - 1000 edge_18_16_0_0 <= 0
 inactive_no_flow_18_17_0_0: flow_18_17_0_0 - 1000 edge_18_17_0_0 <= 0
 inactive_no_flow_18_19_0_0: flow_18_19_0_0 - 1000 edge_18_19_0_0 <= 0
 inactive_no_flow_18_20_0_0: flow_18_20_0_0 - 1000 edge_18_20_0_0 <= 0
 inactive_no_flow_18_21_0_0: flow_18_21_0_0 - 1000 edge_18_21_0_0 <= 0
 inactive_no_flow_18_22_0_0: flow_18_22_0_0 - 1000 edge_18_22_0_0 <= 0
 inactive_no_flow_19_20_0_0: flow_19_20_0_0 - 1000 edge_19_20_0_0 <= 0
 inactive_no_flow_19_21_0_0: flow_19_21_0_0 - 1000 edge_19_21_0_0 <= 0
 inactive_no_flow_19_22_0_0: flow_19_22_0_0 - 1000 edge_19_22_0_0 <= 0
 inactive_no_flow_20_19_0_0: flow_20_19_0_0 - 1000 edge_20_19_0_0 <= 0
 inactive_no_flow_21_13_0_0: flow_21_13_0_0 - 1000 edge_21_13_0_0 <= 0
 inactive_no_flow_21_16_0_0: flow_21_16_0_0 - 1000 edge_21_16_0_0 <= 0
 inactive_no_flow_21_17_0_0: flow_21_17_0_0 - 1000 edge_21_17_0_0 <= 0
 inactive_no_flow_21_19_0_0: flow_21_19_0_0 - 1000 edge_21_19_0_0 <= 0
 inactive_no_flow_21_20_0_0: flow_21_20_0_0 - 1000 edge_21_20_0_0 <= 0
 inactive_no_flow_21_22_0_0: flow_21_22_0_0 - 1000 edge_21_22_0_0 <= 0
 inactive_no_flow_22_21_0_0: flow_22_21_0_0 - 1000 edge_22_21_0_0 <= 0
Bounds
Binaries
 edge_0_2_0_0 edge_0_3_0_0 edge_0_4_0_0 edge_0_7_0_0 edge_0_8_0_0
 edge_0_9_0_0 edge_0_11_0_0 edge_0_12_0_0 edge_0_17_0_0 edge_0_18_0_0
 edge_0_21_0_0 edge_2_3_0_0 edge_2_4_0_0 edge_2_7_0_0 edge_2_8_0_0
 edge_2_9_0_0 edge_2_12_0_0 edge_2_18_0_0 edge_2_22_0_0 edge_3_2_0_0
 edge_3_4_0_0 edge_3_7_0_0 edge_3_8_0_0 edge_3_11_0_0 edge_3_12_0_0
 edge_3_18_0_0 edge_3_22_0_0 edge_4_2_0_0 edge_4_3_0_0 edge_7_2_0_0
 edge_7_3_0_0 edge_7_4_0_0 edge_7_8_0_0 edge_7_9_0_0 edge_7_11_0_0
 edge_7_12_0_0 edge_7_15_0_0 edge_7_18_0_0 edge_8_2_0_0 edge_8_3_0_0
 edge_8_4_0_0 edge_8_7_0_0 edge_8_9_0_0 edge_8_11_0_0 edge_8_12_0_0
 edge_8_13_0_0 edge_8_15_0_0 edge_8_16_0_0 edge_8_17_0_0 edge_8_18_0_0
 edge_8_19_0_0 edge_8_21_0_0 edge_8_22_0_0 edge_9_7_0_0 edge_9_8_0_0
 edge_9_11_0_0 edge_11_2_0_0 edge_11_3_0_0 edge_11_4_0_0 edge_11_7_0_0
 edge_11_8_0_0 edge_11_9_0_0 edge_11_12_0_0 edge_11_13_0_0 edge_11_15_0_0
 edge_11_18_0_0 edge_11_22_0_0 edge_12_2_0_0 edge_12_3_0_0 edge_12_4_0_0
 edge_12_7_0_0 edge_12_8_0_0 edge_12_9_0_0 edge_12_11_0_0 edge_12_13_0_0
 edge_12_15_0_0 edge_12_16_0_0 edge_12_17_0_0 edge_12_18_0_0 edge_12_19_0_0
 edge_12_21_0_0 edge_12_22_0_0 edge_13_12_0_0 edge_13_15_0_0 edge_13_16_0_0
 edge_13_17_0_0 edge_13_18_0_0 edge_13_19_0_0 edge_13_21_0_0 edge_15_13_0_0
 edge_15_16_0_0 edge_16_13_0_0 edge_16_15_0_0 edge_16_17_0_0 edge_16_19_0_0
 edge_17_13_0_0 edge_17_15_0_0 edge_17_16_0_0 edge_17_18_0_0 edge_17_19_0_0
 edge_17_21_0_0 edge_17_22_0_0 edge_18_2_0_0 edge_18_3_0_0 edge_18_4_0_0
 edge_18_7_0_0 edge_18_8_0_0 edge_18_9_0_0 edge_18_11_0_0 edge_18_12_0_0
 edge_18_13_0_0 edge_18_15_0_0 edge_18_16_0_0 edge_18_17_0_0 edge_18_19_0_0
 edge_18_20_0_0 edge_18_21_0_0 edge_18_22_0_0 edge_19_20_0_0 edge_19_21_0_0
 edge_19_22_0_0 edge_20_19_0_0 edge_21_13_0_0 edge_21_16_0_0 edge_21_17_0_0
 edge_21_19_0_0 edge_21_20_0_0 edge_21_22_0_0 edge_22_21_0_0
End
